p cnf 121 199               
2 53 0
1 53 0
-2 -1 -53 0
53 -59 0
-1 54 0
-2 54 0
1 2 -54 0
54 55 0
3 55 0
-54 -3 -55 0
55 -59 0
-3 56 0
-54 56 0
3 54 -56 0
56 57 0
4 57 0
-56 -4 -57 0
57 -59 0
-4 58 0
-56 58 0
4 56 -58 0
58 -59 0
-53 -55 -57 -58 59 0
-59 1 -60 0
59 13 -60 0
1 13 -60 0
60 69 0
-9 69 0
-59 2 -61 0
59 14 -61 0
2 14 -61 0
61 70 0
-10 70 0
-59 3 -62 0
59 15 -62 0
3 15 -62 0
62 71 0
-11 71 0
-59 4 -63 0
59 16 -63 0
4 16 -63 0
63 72 0
-12 72 0
-69 -70 -71 -72 73 0
-73 -74 0
60 64 0
-5 64 0
61 65 0
-6 65 0
62 66 0
-7 66 0
63 67 0
-8 67 0
-64 -65 -66 -67 68 0
-68 -74 0
5 48 0
-9 48 0
6 49 0
-10 49 0
7 50 0
-11 50 0
8 51 0
-12 51 0
-48 -49 -50 -51 52 0
-52 -74 0
-6 -5 -17 0
17 -23 0
-5 18 0
-6 18 0
5 6 -18 0
-18 -7 -19 0
19 -23 0
-7 20 0
-18 20 0
7 18 -20 0
-20 -8 -21 0
21 -23 0
8 20 -22 0
22 -23 0
23 -74 0
-10 -9 -24 0
24 -30 0
-9 25 0
-10 25 0
9 10 -25 0
-25 -11 -26 0
26 -30 0
-11 27 0
-25 27 0
11 25 -27 0
-27 -12 -28 0
28 -30 0
12 27 -29 0
29 -30 0
30 -74 0
-14 -13 -31 0
31 -37 0
-13 32 0
-14 32 0
13 14 -32 0
-32 -15 -33 0
33 -37 0
-15 34 0
-32 34 0
15 32 -34 0
-34 -16 -35 0
35 -37 0
16 34 -36 0
36 -37 0
37 -74 0
-5 1 -38 0
38 -42 0
-6 2 -39 0
39 -42 0
-7 3 -40 0
40 -42 0
-8 4 -41 0
41 -42 0
42 -74 0
-9 1 -43 0
43 -47 0
-10 2 -44 0
44 -47 0
-11 3 -45 0
45 -47 0
-12 4 -46 0
46 -47 0
47 -74 0
-1 2 -75 0
75 -89 0
-1 -2 76 0
1 2 76 0
-2 2 76 0
-5 6 -77 0
-76 77 -78 0
78 -89 0
-5 -6 79 0
5 6 79 0
-6 6 79 0
-76 -79 80 0
-9 10 -81 0
-80 81 -82 0
82 -89 0
-9 -10 83 0
9 10 83 0
-10 10 83 0
-80 -83 84 0
-13 14 -85 0
-84 85 -86 0
86 -89 0
89 -120 0
-2 3 -90 0
90 -104 0
-2 -3 91 0
2 3 91 0
-3 3 91 0
-6 7 -92 0
-91 92 -93 0
93 -104 0
-6 -7 94 0
6 7 94 0
-7 7 94 0
-91 -94 95 0
-10 11 -96 0
-95 96 -97 0
97 -104 0
-10 -11 98 0
10 11 98 0
-11 11 98 0
-95 -98 99 0
-14 15 -100 0
-99 100 -101 0
101 -104 0
104 -120 0
-3 4 -105 0
105 -119 0
-3 -4 106 0
3 4 106 0
-4 4 106 0
-7 8 -107 0
-106 107 -108 0
108 -119 0
-7 -8 109 0
7 8 109 0
-8 8 109 0
-106 -109 110 0
-11 12 -111 0
-110 111 -112 0
112 -119 0
-11 -12 113 0
11 12 113 0
-12 12 113 0
-110 -113 114 0
-15 16 -115 0
-114 115 -116 0
116 -119 0
119 -120 0
74 0
120 0
